1079.91 0
0 146 82 48 47 36 143 49 64 63 126 90 1 132 27 0
0 18 83 84 17 113 86 140 38 14 142 42 43 15 57 144 137 0
0 105 21 72 56 139 39 67 25 55 4 110 149 26 0
0 58 2 115 145 41 22 133 23 75 74 73 40 53 0
0 6 59 98 85 93 5 118 60 147 0
0 96 104 99 61 16 141 44 119 91 100 37 92 95 94 0
0 127 31 88 148 62 10 108 32 131 30 70 101 69 0
0 122 20 128 66 103 9 120 81 33 102 50 0
0 138 109 54 130 134 24 29 121 68 80 150 12 28 0
0 13 87 97 117 112 0
0 76 116 77 3 79 129 78 34 135 35 136 65 71 51 111 0
0 52 106 7 11 107 19 123 124 46 45 125 8 114 89 0
